; Formal verification proof - input completeness of .\test_netlist.txt
(set-logic QF_BV)

; Inputs: A, B, C
(declare-fun A () (_ BitVec 2))
(declare-fun B () (_ BitVec 2))
(declare-fun C () (_ BitVec 2))

; Outputs: X, Y
(declare-fun X () (_ BitVec 2))
(declare-fun Y () (_ BitVec 2))

; Extract rail0 of a dual rail signal
(define-fun rail0 ((a (_ BitVec 2))) (_ BitVec 1)
    ((_ extract 0 0) a)
)

; Extract rail1 of a dual rail signal
(define-fun rail1 ((a (_ BitVec 2))) (_ BitVec 1)
    ((_ extract 1 1) a)
)

; Determine if the dual rail signal is null (0b00)
(define-fun nullp ((a (_ BitVec 2))) (Bool)
    (and
        (= (_ bv0 1) (rail0 a))
        (= (_ bv0 1) (rail1 a))
    )
)

; NCL Gate Boolean Function - THxor0: (AB + CD)
(define-fun Thxor0 ((a (_ BitVec 1)) (b (_ BitVec 1)) (c (_ BitVec 1)) (d (_ BitVec 1)) (g_l (_ BitVec 1))) (_ BitVec 1)
    (ite
        (=
            (_ bv1 1)
            (bvand
                (bvnot a)
                (bvnot b)
                (bvnot c)
                (bvnot d)))
        (_ bv0 1)
        (ite
            (=
                (_ bv1 1)
                (bvor
                    (bvand a b)
                    (bvand c d)))
            (_ bv1 1)
            g_l))
)

; NCL Gate Boolean Function - TH24comp: (AC + BC + AD + BD)
(define-fun Th24comp ((a (_ BitVec 1)) (b (_ BitVec 1)) (c (_ BitVec 1)) (d (_ BitVec 1)) (g_l (_ BitVec 1))) (_ BitVec 1)
    (ite
        (=
            (_ bv1 1)
            (bvand
                (bvnot a)
                (bvnot b)
                (bvnot c)
                (bvnot d)))
        (_ bv0 1)
        (ite
            (=
                (_ bv1 1)
                (bvor
                    (bvand a c)
                    (bvand b c)
                    (bvand a d)
                    (bvand b d)))
            (_ bv1 1)
            g_l))
)

; NCL Gate Boolean Function - TH22: (AB)
(define-fun Th22 ((a (_ BitVec 1)) (b (_ BitVec 1)) (g_l (_ BitVec 1))) (_ BitVec 1)
    (ite
        (=
            (_ bv1 1)
            (bvand
                (bvnot a)
                (bvnot b)))
        (_ bv0 1)
        (ite
            (=
                (_ bv1 1)
                (bvand a b))
            (_ bv1 1)
            g_l))
)

; NCL Gate Boolean Function - TH23w2: (A + BC)
(define-fun Th23w2 ((a (_ BitVec 1)) (b (_ BitVec 1)) (c (_ BitVec 1)) (g_l (_ BitVec 1))) (_ BitVec 1)
    (ite
        (=
            (_ bv1 1)
            (bvand
                (bvnot a)
                (bvnot b)
                (bvnot c)))
        (_ bv0 1)
        (ite
            (=
                (_ bv1 1)
                (bvor a
                    (bvand b c)))
            (_ bv1 1)
            g_l))
)

; NCL Gate Boolean Function - TH33: (ABC)
(define-fun Th33 ((a (_ BitVec 1)) (b (_ BitVec 1)) (c (_ BitVec 1)) (g_l (_ BitVec 1))) (_ BitVec 1)
    (ite
        (=
            (_ bv1 1)
            (bvand
                (bvnot a)
                (bvnot b)
                (bvnot c)))
        (_ bv0 1)
        (ite
            (=
                (_ bv1 1)
                (bvand a b c))
            (_ bv1 1)
            g_l))
)

; NCL Gate Boolean Function - THand0: (AB + BC + AD)
(define-fun Thand0 ((a (_ BitVec 1)) (b (_ BitVec 1)) (c (_ BitVec 1)) (d (_ BitVec 1)) (g_l (_ BitVec 1))) (_ BitVec 1)
    (ite
        (=
            (_ bv1 1)
            (bvand
                (bvnot a)
                (bvnot b)
                (bvnot c)
                (bvnot d)))
        (_ bv0 1)
        (ite
            (=
                (_ bv1 1)
                (bvor
                    (bvand a b)
                    (bvand b c)
                    (bvand a d)))
            (_ bv1 1)
            g_l))
)

(check-sat)
(get-model)
